db/data/25599112392735518101902115556605728634.z3.out
-------------------
2500.111974959
